DIMENSION: 32
EDGE_WEIGHT_TYPE: EXPLICIT
EDGE_WEIGHT_FORMAT: FULL_MATRIX
EDGE_WEIGHT_SECTION:
32767 80 74 23 32767 23 18 32767 70 32767 32767 48 32767 32767 32767 32767 32767 32767 75 32767 32767 32767 32767 16 100 32767 22 32767 44 32767 9 32767 
80 32767 82 79 32767 32767 75 32767 32767 32767 32767 32767 31 72 72 32767 32767 32767 34 32767 32767 32767 32767 32767 32767 54 64 51 87 97 42 32767 
74 82 32767 79 32767 32767 32767 32767 90 23 32767 52 23 89 32767 32767 32767 32767 32767 32767 32767 32767 63 61 32767 32767 32767 81 84 32767 26 15 
23 79 79 32767 32767 32767 32767 32767 32767 40 32767 32767 44 62 32767 77 32767 89 32767 80 32767 9 32767 32767 32767 1 32767 32767 32767 32767 32767 25 
32767 32767 32767 32767 32767 37 53 32767 32767 14 32767 32767 32767 32 19 85 32767 32767 32767 32767 32767 32767 32767 32767 32767 18 88 22 85 8 93 32767 
23 32767 32767 32767 37 32767 87 37 32767 32767 32 32767 55 98 32767 32767 63 32767 32 32767 32767 32767 32767 32767 98 89 86 32767 63 32767 95 32767 
18 75 32767 32767 53 87 32767 32767 32767 32767 32767 32767 32767 32767 32767 32767 49 32767 32767 80 32767 35 72 32 86 42 32767 32767 32767 64 4 32767 
32767 32767 32767 32767 32767 37 32767 32767 32767 32767 15 32767 32767 32767 32767 32767 91 32767 32767 95 85 32767 32767 32767 32767 32767 31 32767 32767 32767 32767 79 
70 32767 90 32767 32767 32767 32767 32767 32767 3 32767 70 67 32767 48 32767 32767 35 32767 32767 32767 49 38 17 62 61 32767 32767 16 32767 32767 53 
32767 32767 23 40 14 32767 32767 32767 3 32767 43 32767 32767 32767 99 32767 86 32767 93 32767 32767 23 24 32767 32767 32767 32767 32767 23 32767 37 32767 
32767 32767 32767 32767 32767 32 32767 15 32767 43 32767 21 34 32767 32767 65 32767 32767 31 32767 16 32767 32767 32767 32767 32767 32767 32767 6 32767 32767 32767 
48 32767 52 32767 32767 32767 32767 32767 70 32767 21 32767 32767 32767 81 32767 35 6 28 70 19 18 67 32767 32767 17 48 32767 32767 41 85 32767 
32767 31 23 44 32767 55 32767 32767 67 32767 34 32767 32767 5 99 32767 32767 32767 32767 32767 20 32767 32767 32767 32767 32767 32767 44 58 32767 32767 32767 
32767 72 89 62 32 98 32767 32767 32767 32767 32767 32767 5 32767 32767 62 32767 32767 32767 55 11 32767 32767 32767 47 32767 32767 88 8 32767 32767 32767 
32767 72 32767 32767 19 32767 32767 32767 48 99 32767 81 99 32767 32767 32767 32767 32767 32767 32767 40 55 48 32767 63 51 32767 32767 32767 32767 43 32767 
32767 32767 32767 77 85 32767 32767 32767 32767 32767 65 32767 32767 62 32767 32767 32767 58 32767 32767 32767 32767 59 15 32767 32767 33 32767 32767 32767 60 32767 
32767 32767 32767 32767 32767 63 49 91 32767 86 32767 35 32767 32767 32767 32767 32767 67 32767 32767 33 32767 27 32767 32767 32767 32767 32767 32767 32767 92 32767 
32767 32767 32767 89 32767 32767 32767 32767 35 32767 32767 6 32767 32767 32767 58 67 32767 32767 32767 32767 10 63 32767 25 32767 32767 94 32767 24 32767 32767 
75 34 32767 32767 32767 32 32767 32767 32767 93 31 28 32767 32767 32767 32767 32767 32767 32767 79 32767 17 32767 77 86 32767 32767 26 62 32767 24 66 
32767 32767 32767 80 32767 32767 80 95 32767 32767 32767 70 32767 55 32767 32767 32767 32767 79 32767 32767 96 23 2 32767 32767 94 32767 32767 32767 32767 32767 
32767 32767 32767 32767 32767 32767 32767 85 32767 32767 16 19 20 11 40 32767 33 32767 32767 32767 32767 85 32767 32767 32767 32767 32767 82 32767 4 71 27 
32767 32767 32767 9 32767 32767 35 32767 49 23 32767 18 32767 32767 55 32767 32767 10 17 96 85 32767 32767 32767 32767 32767 32767 32767 93 66 70 93 
32767 32767 63 32767 32767 32767 72 32767 38 24 32767 67 32767 32767 48 59 27 63 32767 23 32767 32767 32767 32767 30 32767 32767 32767 24 52 34 32767 
16 32767 61 32767 32767 32767 32 32767 17 32767 32767 32767 32767 32767 32767 15 32767 32767 77 2 32767 32767 32767 32767 32767 32767 32767 32767 32767 59 32767 32767 
100 32767 32767 32767 32767 98 86 32767 62 32767 32767 32767 32767 47 63 32767 32767 25 86 32767 32767 32767 30 32767 32767 1 38 3 32767 95 32767 32767 
32767 54 32767 1 18 89 42 32767 61 32767 32767 17 32767 32767 51 32767 32767 32767 32767 32767 32767 32767 32767 32767 1 32767 32767 20 32767 32767 75 69 
22 64 32767 32767 88 86 32767 31 32767 32767 32767 48 32767 32767 32767 33 32767 32767 32767 94 32767 32767 32767 32767 38 32767 32767 32767 32767 64 32767 32767 
32767 51 81 32767 22 32767 32767 32767 32767 32767 32767 32767 44 88 32767 32767 32767 94 26 32767 82 32767 32767 32767 3 20 32767 32767 32767 65 21 32767 
44 87 84 32767 85 63 32767 32767 16 23 6 32767 58 8 32767 32767 32767 32767 62 32767 32767 93 24 32767 32767 32767 32767 32767 32767 39 18 32767 
32767 97 32767 32767 8 32767 64 32767 32767 32767 32767 41 32767 32767 32767 32767 32767 24 32767 32767 4 66 52 59 95 32767 64 65 39 32767 32767 32767 
9 42 26 32767 93 95 4 32767 32767 37 32767 85 32767 32767 43 60 92 32767 24 32767 71 70 34 32767 32767 75 32767 21 18 32767 32767 32767 
32767 32767 15 25 32767 32767 32767 79 53 32767 32767 32767 32767 32767 32767 32767 32767 32767 66 32767 27 93 32767 32767 32767 69 32767 32767 32767 32767 32767 32767 
EOF